(set-logic UF)
(declare-sort Set 0)
(declare-sort Elem 0)
(declare-fun member (Elem Set) Bool)
(declare-fun subset (Set Set) Bool)
(declare-fun seteq (Set Set) Bool)
(declare-fun union (Set Set) Set)
(declare-fun intersection (Set Set) Set)
(declare-fun difference (Set Set) Set)
(declare-fun a () Set)
(declare-fun b () Set)
(declare-fun c () Set)
(assert (not (= (seteq (intersection a (intersection b c)) (intersection (intersection a b) c)) (and (subset (intersection a (intersection b c)) (intersection (intersection a b) c)) (subset (intersection (intersection a b) c) (intersection a (intersection b c)))))))
(assert (forall ((?s1 Set) (?s2 Set)) (= (seteq ?s1 ?s2) (and (subset ?s1 ?s2) (subset ?s2 ?s1)))))
(assert (or (not (forall ((?s1 Set) (?s2 Set)) (= (seteq ?s1 ?s2) (and (subset ?s1 ?s2) (subset ?s2 ?s1))))) (= (seteq (intersection a (intersection b c)) (intersection (intersection a b) c)) (and (subset (intersection a (intersection b c)) (intersection (intersection a b) c)) (subset (intersection (intersection a b) c) (intersection a (intersection b c)))))))
(check-sat)
(exit)
